# 66303
param k := 6;
param n := 50;
param s := 1;
set E :=  (0,45) (0,48) (1,5) (1,22) (2,17) (2,43) (2,45) (3,26) (3,41) (4,21) (5,30) (5,32) (5,39) (5,44) (6,10) (6,11) (6,36) (7,45) (8,19) (8,21) (8,32) (8,35) (9,17) (9,20) (9,41) (9,43) (10,29) (11,33) (12,22) (12,36) (12,40) (12,46) (13,14) (13,25) (13,28) (14,18) (15,31) (15,37) (15,49) (16,22) (17,27) (17,29) (17,31) (18,31) (19,49) (20,34) (21,24) (21,40) (23,24) (23,30) (23,36) (24,26) (24,47) (25,40) (26,27) (26,42) (27,48) (31,40) (33,38) (34,44) (34,47) (38,45) (39,48) (40,45) (44,48);